c Sudoku solution
p cnf 729 0
112 0
147 0
155 0
283 0
291 0
428 0
436 0
445 0
472 0
549 0
575 0
621 0
751 0
341 0
131 0
768 0
784 0
819 0
911 0
639 0
615 0
871 0
963 0
865 0
959 0
857 0
643 0
248 0
318 0
353 0
123 0
454 0
773 0
799 0
833 0
938 0
489 0
581 0
461 0
188 0
678 0
558 0
694 0
898 0
196 0
976 0
882 0
392 0
385 0
987 0
995 0
686 0
566 0
652 0
667 0
256 0
262 0
326 0
229 0
235 0
716 0
824 0
922 0
742 0
944 0
846 0
532 0
527 0
514 0
413 0
497 0
593 0
217 0
334 0
274 0
179 0
377 0
164 0
369 0
725 0
737 0
